10917 7083 818
8521 10479 971
7492 12508 811
8778 10222 973
11084 6916 685
8977 11023 841
8308 10692 969
6340 12660 698
8277 11723 950
6392 12608 788
8881 11119 902
11321 5679 675
10651 8349 779
6626 12374 853
8902 9098 981
8505 11495 821
10055 8945 901
9571 9429 979
10422 7578 899
4236 12764 622
